
Gurobi 10.0.1 (linux64) logging started Sun Nov 26 15:37:22 2023

Set parameter LogFile to value "ArtificialInstance/ExperimentV2/S4T4K3/BaDo/gurobi1.txt"
Gurobi Optimizer version 10.0.1 build v10.0.1rc0 (linux64)

CPU model: AMD EPYC 7H12 64-Core Processor, instruction set [SSE2|AVX|AVX2]
Thread count: 128 physical cores, 128 logical processors, using up to 32 threads

Academic license 656792 - for non-commercial use only - registered to b.___@student.vu.nl
Optimize a model with 945 rows, 1520 columns and 5040 nonzeros
Model fingerprint: 0x9cc39555
Variable types: 0 continuous, 1520 integer (1520 binary)
Coefficient statistics:
  Matrix range     [1e+00, 1e+00]
  Objective range  [2e+00, 2e+01]
  Bounds range     [1e+00, 1e+00]
  RHS range        [1e+00, 1e+00]
Found heuristic solution: objective 593.8464071
Presolve time: 0.01s
Presolved: 945 rows, 1520 columns, 5040 nonzeros
Variable types: 0 continuous, 1520 integer (1520 binary)

Root relaxation: objective 4.216996e+01, 711 iterations, 0.01 seconds (0.01 work units)

    Nodes    |    Current Node    |     Objective Bounds      |     Work
 Expl Unexpl |  Obj  Depth IntInf | Incumbent    BestBd   Gap | It/Node Time

     0     0   42.16996    0  140  593.84641   42.16996  92.9%     -    0s
H    0     0                     247.2138582   42.16996  82.9%     -    0s
H    0     0                     101.1688205   42.16996  58.3%     -    0s
H    0     0                      98.7837462   48.27657  51.1%     -    0s
     0     0   48.27657    0  212   98.78375   48.27657  51.1%     -    0s
H    0     0                      58.3429839   48.27657  17.3%     -    0s
     0     0   50.92173    0  255   58.34298   50.92173  12.7%     -    0s
     0     0   50.92173    0  260   58.34298   50.92173  12.7%     -    0s
     0     0   52.00322    0  262   58.34298   52.00322  10.9%     -    0s
     0     0   52.37341    0  268   58.34298   52.37341  10.2%     -    0s
     0     0   52.42002    0  271   58.34298   52.42002  10.2%     -    0s
     0     0   53.27002    0  313   58.34298   53.27002  8.70%     -    0s
     0     0   53.37654    0  330   58.34298   53.37654  8.51%     -    0s
     0     0   53.43603    0  305   58.34298   53.43603  8.41%     -    0s
     0     0   53.59096    0  316   58.34298   53.59096  8.14%     -    0s
     0     0   53.59096    0  140   58.34298   53.59096  8.14%     -    0s
     0     0   53.59096    0  332   58.34298   53.59096  8.14%     -    0s
     0     0   53.59096    0  315   58.34298   53.59096  8.14%     -    0s
     0     0   53.59096    0  318   58.34298   53.59096  8.14%     -    0s
     0     0   53.59096    0  331   58.34298   53.59096  8.14%     -    0s
     0     0   53.88229    0  172   58.34298   53.88229  7.65%     -    0s
     0     0   54.04368    0  179   58.34298   54.04368  7.37%     -    0s
     0     0   54.04368    0  181   58.34298   54.04368  7.37%     -    0s
     0     0   54.21447    0  230   58.34298   54.21447  7.08%     -    0s
     0     0   54.24670    0  229   58.34298   54.24670  7.02%     -    0s
     0     0   54.90737    0  261   58.34298   54.90737  5.89%     -    0s
     0     0   54.90748    0  262   58.34298   54.90748  5.89%     -    0s
     0     0   54.91844    0  263   58.34298   54.91844  5.87%     -    0s
     0     0   54.91844    0  270   58.34298   54.91844  5.87%     -    0s
     0     0   55.17736    0  272   58.34298   55.17736  5.43%     -    0s
     0     0   55.20790    0  269   58.34298   55.20790  5.37%     -    0s
     0     0   55.25005    0  295   58.34298   55.25005  5.30%     -    0s
     0     0   55.25005    0  295   58.34298   55.25005  5.30%     -    0s
     0     0   55.27490    0  297   58.34298   55.27490  5.26%     -    0s
     0     0   55.29035    0  236   58.34298   55.29035  5.23%     -    0s
     0     0   55.29322    0  290   58.34298   55.29322  5.23%     -    0s
     0     0   55.39292    0  290   58.34298   55.39292  5.06%     -    0s
     0     0   55.39641    0  294   58.34298   55.39641  5.05%     -    0s
     0     0   55.39689    0  308   58.34298   55.39689  5.05%     -    0s
     0     0   55.39689    0  281   58.34298   55.39689  5.05%     -    0s
     0     0   55.39689    0  139   58.34298   55.39689  5.05%     -    1s
     0     0   55.39689    0  239   58.34298   55.39689  5.05%     -    1s
     0     0   55.39689    0  202   58.34298   55.39689  5.05%     -    1s
     0     0   55.39689    0  285   58.34298   55.39689  5.05%     -    1s
     0     0   55.39689    0  281   58.34298   55.39689  5.05%     -    1s
     0     0   55.40896    0  272   58.34298   55.40896  5.03%     -    1s
     0     0   55.41003    0  272   58.34298   55.41003  5.03%     -    1s
     0     0   55.58343    0  212   58.34298   55.58343  4.73%     -    1s
     0     0   55.59801    0  204   58.34298   55.59801  4.70%     -    1s
     0     0   55.64221    0  272   58.34298   55.64221  4.63%     -    1s
     0     0   55.66652    0  284   58.34298   55.66652  4.59%     -    1s
     0     0   55.66811    0  297   58.34298   55.66811  4.58%     -    1s
     0     0   55.71940    0  290   58.34298   55.71940  4.50%     -    1s
     0     0   55.74853    0  283   58.34298   55.74853  4.45%     -    1s
     0     0   55.74853    0  284   58.34298   55.74853  4.45%     -    1s
     0     0   55.74881    0  290   58.34298   55.74881  4.45%     -    1s
     0     0   55.74881    0  290   58.34298   55.74881  4.45%     -    1s

Cutting planes:
  Gomory: 8
  Clique: 4
  Zero half: 42
  RLT: 27

Explored 1 nodes (8822 simplex iterations) in 1.37 seconds (0.56 work units)
Thread count was 32 (of 128 available processors)

Solution count 5: 58.343 98.7837 101.169 ... 593.846

Optimal solution found (tolerance 1.00e-04)
Best objective 5.834298392408e+01, best bound 5.834298392408e+01, gap 0.0000%
